50 23271
5210 6414 6804 4404 4461 1577 5469 8827 9994 8706 3579 2755 3095 5346 6619 8308 7994 8098 4078 8185 2269 6079 4424 1568 9277 3894 9964 2471 9062 6472 8369 7152 7384 7303 8895 7357 9173 4631 8626 5795 8048 6829 8517 8123 8830 2179 5048 6012 2264 7905 
4697 2602 4500 8369 8822 5431 9167 1889 8767 152 9349 5217 5958 5626 7670 7682 9735 6998 8411 9428 4455 365 7718 7436 4358 94 7460 2717 6511 909 139 6049 7237 2555 3502 6719 4326 2226 1302 1268 3801 7399 2040 8043 6305 2488 8339 3335 9961 1630 
